c Sudoku solution
p cnf 729 0
122 0
261 0
287 0
311 0
362 0
376 0
388 0
474 0
483 0
513 0
527 0
556 0
664 0
534 0
671 0
541 0
689 0
569 0
732 0
751 0
768 0
823 0
837 0
117 0
855 0
866 0
878 0
598 0
936 0
921 0
918 0
431 0
146 0
786 0
942 0
967 0
163 0
465 0
777 0
985 0
582 0
575 0
272 0
973 0
743 0
653 0
452 0
612 0
357 0
179 0
892 0
881 0
184 0
191 0
158 0
135 0
715 0
625 0
638 0
448 0
647 0
497 0
696 0
228 0
216 0
324 0
814 0
729 0
794 0
999 0
849 0
954 0
419 0
426 0
244 0
259 0
345 0
295 0
393 0
233 0
339 0
